13 965
525 7 477 7 387 7 240 9 99 15
535 8 492 8 399 9 233 10 70 14 902 18 772 30
535 8 492 8 399 9 233 10 70 14 902 18 772 30
535 8 492 8 400 9 235 10 72 14 905 18 837 25 708 80
525 7 479 7 359 7 214 9 32 11 788 18
525 7 484 7 368 7 123 9 859 11 681 18
535 8 494 8 422 11
525 7 451 7 273 7 204 9 768 11 586 18
525 7 477 7 390 7 241 9 75 11 912 15 777 22
525 7 445 7 264 7 63 9 889 11 721 18
525 7 479 7 355 7 106 9 927 13
525 7 484 7 368 7 123 9 857 11 631 18
525 7 479 7 356 7 109 9 864 11 699 15 557 22
